 $CONTRL SCFTYP=MCSCF PP=READ ISPHER=1 MULT=1
   MAXIT=200 COORD=UNIQUE EXETYP=RUN $END
 $SYSTEM MWORDS=500 $END
 $GUESS  GUESS=MOREAD PRTMO=.TRUE. NORB=435 $END
 $SCF DIRSCF=.True. $END 
 $MCSCF  CISTEP=GUGA  SOSCF=.TRUE. FORS=.TRUE. FULLNR=.TRUE. $END
 $DRT  GROUP=C1 FORS=.TRUE. NMCC=28 NDOC=2 NALP=0 NVAL=2
       NPRT=2 $END
 $GUGDIA PRTTOL=0.00000001 KPRINT=10 $END
 $DATA
minima/min000000001.xyz
C1
Si 14 -1.4588898E+00 -2.4598237E+00  4.2228904E-01
s 9 1.00
1 0.059887     0.167492
2 0.130108     0.532550
3 0.282668     0.464290
4 0.614115     -0.002322
5 1.334205     -0.268234
6 2.898645     0.031921
7 6.297493     -0.000106
8 13.681707     -0.000145
9 29.724387     0.000067
s 1 1.00
1 0.090113     1.000000
s 1 1.00
1 0.507467     1.000000
p 9 1.00
1 0.036525     0.078761
2 0.076137     0.308331
3 0.158712     0.417773
4 0.330843     0.281676
5 0.689658     0.069876
6 1.437625     -0.056306
7 2.996797     0.000744
8 6.246966     -0.000259
9 13.022097     -0.000022
p 1 1.00
1 0.056148     1.000000
p 1 1.00
1 0.146758     1.000000
d 1 1.00
1 0.170395     1.000000
d 1 1.00
1 0.539756     1.000000
f 1 1.00
1 0.352999     1.000000

Si 14 -2.0641011E+00  1.6623769E+00  8.4417094E-01
s 9 1.00
1 0.059887     0.167492
2 0.130108     0.532550
3 0.282668     0.464290
4 0.614115     -0.002322
5 1.334205     -0.268234
6 2.898645     0.031921
7 6.297493     -0.000106
8 13.681707     -0.000145
9 29.724387     0.000067
s 1 1.00
1 0.090113     1.000000
s 1 1.00
1 0.507467     1.000000
p 9 1.00
1 0.036525     0.078761
2 0.076137     0.308331
3 0.158712     0.417773
4 0.330843     0.281676
5 0.689658     0.069876
6 1.437625     -0.056306
7 2.996797     0.000744
8 6.246966     -0.000259
9 13.022097     -0.000022
p 1 1.00
1 0.056148     1.000000
p 1 1.00
1 0.146758     1.000000
d 1 1.00
1 0.170395     1.000000
d 1 1.00
1 0.539756     1.000000
f 1 1.00
1 0.352999     1.000000

Si 14 -1.1830955E+00  5.2188136E-02 -2.9403165E+00
s 9 1.00
1 0.059887     0.167492
2 0.130108     0.532550
3 0.282668     0.464290
4 0.614115     -0.002322
5 1.334205     -0.268234
6 2.898645     0.031921
7 6.297493     -0.000106
8 13.681707     -0.000145
9 29.724387     0.000067
s 1 1.00
1 0.090113     1.000000
s 1 1.00
1 0.507467     1.000000
p 9 1.00
1 0.036525     0.078761
2 0.076137     0.308331
3 0.158712     0.417773
4 0.330843     0.281676
5 0.689658     0.069876
6 1.437625     -0.056306
7 2.996797     0.000744
8 6.246966     -0.000259
9 13.022097     -0.000022
p 1 1.00
1 0.056148     1.000000
p 1 1.00
1 0.146758     1.000000
d 1 1.00
1 0.170395     1.000000
d 1 1.00
1 0.539756     1.000000
f 1 1.00
1 0.352999     1.000000

Si 14  2.4978027E+00 -1.9836156E+00 -9.2287967E-01
s 9 1.00
1 0.059887     0.167492
2 0.130108     0.532550
3 0.282668     0.464290
4 0.614115     -0.002322
5 1.334205     -0.268234
6 2.898645     0.031921
7 6.297493     -0.000106
8 13.681707     -0.000145
9 29.724387     0.000067
s 1 1.00
1 0.090113     1.000000
s 1 1.00
1 0.507467     1.000000
p 9 1.00
1 0.036525     0.078761
2 0.076137     0.308331
3 0.158712     0.417773
4 0.330843     0.281676
5 0.689658     0.069876
6 1.437625     -0.056306
7 2.996797     0.000744
8 6.246966     -0.000259
9 13.022097     -0.000022
p 1 1.00
1 0.056148     1.000000
p 1 1.00
1 0.146758     1.000000
d 1 1.00
1 0.170395     1.000000
d 1 1.00
1 0.539756     1.000000
f 1 1.00
1 0.352999     1.000000

Si 14  2.4226748E+00  3.7424799E-01 -9.1462679E-01
s 9 1.00
1 0.059887     0.167492
2 0.130108     0.532550
3 0.282668     0.464290
4 0.614115     -0.002322
5 1.334205     -0.268234
6 2.898645     0.031921
7 6.297493     -0.000106
8 13.681707     -0.000145
9 29.724387     0.000067
s 1 1.00
1 0.090113     1.000000
s 1 1.00
1 0.507467     1.000000
p 9 1.00
1 0.036525     0.078761
2 0.076137     0.308331
3 0.158712     0.417773
4 0.330843     0.281676
5 0.689658     0.069876
6 1.437625     -0.056306
7 2.996797     0.000744
8 6.246966     -0.000259
9 13.022097     -0.000022
p 1 1.00
1 0.056148     1.000000
p 1 1.00
1 0.146758     1.000000
d 1 1.00
1 0.170395     1.000000
d 1 1.00
1 0.539756     1.000000
f 1 1.00
1 0.352999     1.000000

Si 14  1.8235316E+00  2.6086537E+00 -4.5248958E-01
s 9 1.00
1 0.059887     0.167492
2 0.130108     0.532550
3 0.282668     0.464290
4 0.614115     -0.002322
5 1.334205     -0.268234
6 2.898645     0.031921
7 6.297493     -0.000106
8 13.681707     -0.000145
9 29.724387     0.000067
s 1 1.00
1 0.090113     1.000000
s 1 1.00
1 0.507467     1.000000
p 9 1.00
1 0.036525     0.078761
2 0.076137     0.308331
3 0.158712     0.417773
4 0.330843     0.281676
5 0.689658     0.069876
6 1.437625     -0.056306
7 2.996797     0.000744
8 6.246966     -0.000259
9 13.022097     -0.000022
p 1 1.00
1 0.056148     1.000000
p 1 1.00
1 0.146758     1.000000
d 1 1.00
1 0.170395     1.000000
d 1 1.00
1 0.539756     1.000000
f 1 1.00
1 0.352999     1.000000

Si 14  1.2403162E+00 -1.6490859E-01  2.6550390E+00
s 9 1.00
1 0.059887     0.167492
2 0.130108     0.532550
3 0.282668     0.464290
4 0.614115     -0.002322
5 1.334205     -0.268234
6 2.898645     0.031921
7 6.297493     -0.000106
8 13.681707     -0.000145
9 29.724387     0.000067
s 1 1.00
1 0.090113     1.000000
s 1 1.00
1 0.507467     1.000000
p 9 1.00
1 0.036525     0.078761
2 0.076137     0.308331
3 0.158712     0.417773
4 0.330843     0.281676
5 0.689658     0.069876
6 1.437625     -0.056306
7 2.996797     0.000744
8 6.246966     -0.000259
9 13.022097     -0.000022
p 1 1.00
1 0.056148     1.000000
p 1 1.00
1 0.146758     1.000000
d 1 1.00
1 0.170395     1.000000
d 1 1.00
1 0.539756     1.000000
f 1 1.00
1 0.352999     1.000000

Si 14 -1.0685870E+00  7.3456032E-01  2.9337036E+00
s 9 1.00
1 0.059887     0.167492
2 0.130108     0.532550
3 0.282668     0.464290
4 0.614115     -0.002322
5 1.334205     -0.268234
6 2.898645     0.031921
7 6.297493     -0.000106
8 13.681707     -0.000145
9 29.724387     0.000067
s 1 1.00
1 0.090113     1.000000
s 1 1.00
1 0.507467     1.000000
p 9 1.00
1 0.036525     0.078761
2 0.076137     0.308331
3 0.158712     0.417773
4 0.330843     0.281676
5 0.689658     0.069876
6 1.437625     -0.056306
7 2.996797     0.000744
8 6.246966     -0.000259
9 13.022097     -0.000022
p 1 1.00
1 0.056148     1.000000
p 1 1.00
1 0.146758     1.000000
d 1 1.00
1 0.170395     1.000000
d 1 1.00
1 0.539756     1.000000
f 1 1.00
1 0.352999     1.000000

Si 14 -1.3015920E+00 -2.1058582E-01 -5.4547827E-01
s 9 1.00
1 0.059887     0.167492
2 0.130108     0.532550
3 0.282668     0.464290
4 0.614115     -0.002322
5 1.334205     -0.268234
6 2.898645     0.031921
7 6.297493     -0.000106
8 13.681707     -0.000145
9 29.724387     0.000067
s 1 1.00
1 0.090113     1.000000
s 1 1.00
1 0.507467     1.000000
p 9 1.00
1 0.036525     0.078761
2 0.076137     0.308331
3 0.158712     0.417773
4 0.330843     0.281676
5 0.689658     0.069876
6 1.437625     -0.056306
7 2.996797     0.000744
8 6.246966     -0.000259
9 13.022097     -0.000022
p 1 1.00
1 0.056148     1.000000
p 1 1.00
1 0.146758     1.000000
d 1 1.00
1 0.170395     1.000000
d 1 1.00
1 0.539756     1.000000
f 1 1.00
1 0.352999     1.000000

Si 14  4.5307426E-01  1.4633369E+00 -1.9935521E+00
s 9 1.00
1 0.059887     0.167492
2 0.130108     0.532550
3 0.282668     0.464290
4 0.614115     -0.002322
5 1.334205     -0.268234
6 2.898645     0.031921
7 6.297493     -0.000106
8 13.681707     -0.000145
9 29.724387     0.000067
s 1 1.00
1 0.090113     1.000000
s 1 1.00
1 0.507467     1.000000
p 9 1.00
1 0.036525     0.078761
2 0.076137     0.308331
3 0.158712     0.417773
4 0.330843     0.281676
5 0.689658     0.069876
6 1.437625     -0.056306
7 2.996797     0.000744
8 6.246966     -0.000259
9 13.022097     -0.000022
p 1 1.00
1 0.056148     1.000000
p 1 1.00
1 0.146758     1.000000
d 1 1.00
1 0.170395     1.000000
d 1 1.00
1 0.539756     1.000000
f 1 1.00
1 0.352999     1.000000

Si 14  8.1410633E-01 -9.9335494E-01 -2.2455001E+00
s 9 1.00
1 0.059887     0.167492
2 0.130108     0.532550
3 0.282668     0.464290
4 0.614115     -0.002322
5 1.334205     -0.268234
6 2.898645     0.031921
7 6.297493     -0.000106
8 13.681707     -0.000145
9 29.724387     0.000067
s 1 1.00
1 0.090113     1.000000
s 1 1.00
1 0.507467     1.000000
p 9 1.00
1 0.036525     0.078761
2 0.076137     0.308331
3 0.158712     0.417773
4 0.330843     0.281676
5 0.689658     0.069876
6 1.437625     -0.056306
7 2.996797     0.000744
8 6.246966     -0.000259
9 13.022097     -0.000022
p 1 1.00
1 0.056148     1.000000
p 1 1.00
1 0.146758     1.000000
d 1 1.00
1 0.170395     1.000000
d 1 1.00
1 0.539756     1.000000
f 1 1.00
1 0.352999     1.000000

Si 14  3.4300200E-01  1.1876135E+00  8.1499951E-01
s 9 1.00
1 0.059887     0.167492
2 0.130108     0.532550
3 0.282668     0.464290
4 0.614115     -0.002322
5 1.334205     -0.268234
6 2.898645     0.031921
7 6.297493     -0.000106
8 13.681707     -0.000145
9 29.724387     0.000067
s 1 1.00
1 0.090113     1.000000
s 1 1.00
1 0.507467     1.000000
p 9 1.00
1 0.036525     0.078761
2 0.076137     0.308331
3 0.158712     0.417773
4 0.330843     0.281676
5 0.689658     0.069876
6 1.437625     -0.056306
7 2.996797     0.000744
8 6.246966     -0.000259
9 13.022097     -0.000022
p 1 1.00
1 0.056148     1.000000
p 1 1.00
1 0.146758     1.000000
d 1 1.00
1 0.170395     1.000000
d 1 1.00
1 0.539756     1.000000
f 1 1.00
1 0.352999     1.000000

Si 14 -7.0819075E-01 -1.7207657E+00  2.6824310E+00
s 9 1.00
1 0.059887     0.167492
2 0.130108     0.532550
3 0.282668     0.464290
4 0.614115     -0.002322
5 1.334205     -0.268234
6 2.898645     0.031921
7 6.297493     -0.000106
8 13.681707     -0.000145
9 29.724387     0.000067
s 1 1.00
1 0.090113     1.000000
s 1 1.00
1 0.507467     1.000000
p 9 1.00
1 0.036525     0.078761
2 0.076137     0.308331
3 0.158712     0.417773
4 0.330843     0.281676
5 0.689658     0.069876
6 1.437625     -0.056306
7 2.996797     0.000744
8 6.246966     -0.000259
9 13.022097     -0.000022
p 1 1.00
1 0.056148     1.000000
p 1 1.00
1 0.146758     1.000000
d 1 1.00
1 0.170395     1.000000
d 1 1.00
1 0.539756     1.000000
f 1 1.00
1 0.352999     1.000000

Si 14  7.1170846E-01 -1.3238947E+00  5.5786467E-01
s 9 1.00
1 0.059887     0.167492
2 0.130108     0.532550
3 0.282668     0.464290
4 0.614115     -0.002322
5 1.334205     -0.268234
6 2.898645     0.031921
7 6.297493     -0.000106
8 13.681707     -0.000145
9 29.724387     0.000067
s 1 1.00
1 0.090113     1.000000
s 1 1.00
1 0.507467     1.000000
p 9 1.00
1 0.036525     0.078761
2 0.076137     0.308331
3 0.158712     0.417773
4 0.330843     0.281676
5 0.689658     0.069876
6 1.437625     -0.056306
7 2.996797     0.000744
8 6.246966     -0.000259
9 13.022097     -0.000022
p 1 1.00
1 0.056148     1.000000
p 1 1.00
1 0.146758     1.000000
d 1 1.00
1 0.170395     1.000000
d 1 1.00
1 0.539756     1.000000
f 1 1.00
1 0.352999     1.000000

Si 14 -2.6762276E+00 -6.3236801E-01  1.6038305E+00
s 9 1.00
1 0.059887     0.167492
2 0.130108     0.532550
3 0.282668     0.464290
4 0.614115     -0.002322
5 1.334205     -0.268234
6 2.898645     0.031921
7 6.297493     -0.000106
8 13.681707     -0.000145
9 29.724387     0.000067
s 1 1.00
1 0.090113     1.000000
s 1 1.00
1 0.507467     1.000000
p 9 1.00
1 0.036525     0.078761
2 0.076137     0.308331
3 0.158712     0.417773
4 0.330843     0.281676
5 0.689658     0.069876
6 1.437625     -0.056306
7 2.996797     0.000744
8 6.246966     -0.000259
9 13.022097     -0.000022
p 1 1.00
1 0.056148     1.000000
p 1 1.00
1 0.146758     1.000000
d 1 1.00
1 0.170395     1.000000
d 1 1.00
1 0.539756     1.000000
f 1 1.00
1 0.352999     1.000000

 $END
 $ECP
Si-QMC GEN 10 2
3
4.00000000 1 1.80721061
7.22884246 3 9.99633089
-13.06725590 2 2.50043232
1
21.20531613 2 2.26686403
1
15.43693603 2 2.11659661
Si-QMC GEN 10 2
Si-QMC GEN 10 2
Si-QMC GEN 10 2
Si-QMC GEN 10 2
Si-QMC GEN 10 2
Si-QMC GEN 10 2
Si-QMC GEN 10 2
Si-QMC GEN 10 2
Si-QMC GEN 10 2
Si-QMC GEN 10 2
Si-QMC GEN 10 2
Si-QMC GEN 10 2
Si-QMC GEN 10 2
Si-QMC GEN 10 2
 $END
--- CLOSED SHELL ORBITALS --- GENERATED AT Fri Sep 11 14:34:48 2015
minima/min000000001.xyz                                                         
E(RHF)=      -56.3171879356, E(NUC)=  255.2816483881,   16 ITERS
 $VEC   
 1  1 1.31364859E-01-3.00341725E-02-5.79513877E-03 2.70676048E-02 5.33953353E-02
 1  2 4.48673099E-03-7.36579492E-03-1.11680696E-02 2.17172716E-03-7.94722574E-03
 1  3-6.98211359E-03 7.45230243E-03-3.07291184E-03 5.03976197E-03-1.96685014E-03
 1  4 2.32369298E-03 2.18222237E-03 5.29978816E-03-5.26740303E-04 2.16658523E-03
 1  5-1.63984492E-03 2.53984083E-03-1.08986866E-04-1.93763230E-05 3.59747605E-05
 1  6-1.17846765E-04 9.38028326E-05 4.88866775E-05-4.16774534E-05-7.71483151E-05
 1  7-8.41722528E-05 2.88831091E-05 1.09221349E-04-1.24445308E-04 1.31383139E-01
 1  8-3.00427285E-02-5.79555863E-03 4.12689095E-02-4.32714403E-02-5.40821795E-03
 1  9-1.01743879E-02 7.94744016E-03 4.13209923E-03-9.38697721E-03 2.81000359E-03
 1 10 8.45397782E-03-1.13538197E-03 4.52762671E-03-3.39224474E-03-5.24922126E-03
 1 11 2.58235621E-03-2.76480762E-03 8.84753366E-04 6.28774291E-04-1.51352766E-03
 1 12-2.87836980E-03-7.81400208E-04 6.03013883E-04 3.75880682E-05 4.64730759E-05
 1 13 3.97316671E-05 5.33159191E-05-9.28872834E-05-1.49699095E-04 3.95816583E-05
 1 14 9.92694100E-05-1.15666093E-04 6.25055150E-05 1.37059091E-01-2.85821792E-02
 1 15-5.47423969E-03 4.18761617E-02 7.94187213E-04 5.23435287E-02-1.13267579E-02
 1 16-3.80551465E-04-1.25518512E-02-8.09432899E-03-1.76012674E-04-9.95191279E-03
 1 17 1.85690135E-03-3.95287246E-03 2.09597111E-03 3.92825368E-04 5.83302886E-03
 1 18 1.35318379E-04 9.97748809E-04-2.76462293E-03 1.76687412E-03 2.24564646E-04
 1 19 4.07922270E-03 6.11599708E-05-4.48138606E-04 3.63349457E-04-2.73116072E-04
 1 20-3.33785203E-04 1.49902761E-03 1.97385325E-04-1.13260395E-03 4.03855706E-04
 1 21-1.53699248E-04 4.51064573E-04 1.37039983E-01-2.85646722E-02-5.47392641E-03
 1 22-4.54347528E-02 4.90719985E-02 4.48617317E-03 1.10780246E-02-1.27689546E-02
 1 23-2.69496822E-04 8.65314108E-03-9.42619410E-03-7.71704120E-04 6.75929892E-04
 1 24 2.63753150E-03-3.31346139E-03-6.10772800E-03-2.36593815E-04-4.83260471E-04
 1 25 6.38819246E-04 1.69072568E-03-2.32954492E-03-4.31229616E-03-3.50446712E-04
 1 26-1.02369383E-04 7.99881623E-04 3.95708033E-04 9.89575398E-05 9.46728641E-04
 1 27-1.52050663E-04-7.07621525E-04 1.92851919E-05-3.65532285E-04-1.47762668E-03
 1 28 3.60895649E-04 2.34116069E-01-5.09746263E-02-9.29921551E-03-7.49844609E-02
 1 29-1.10710412E-02 6.89024153E-04 1.44103790E-02 2.01309826E-03 9.92292632E-04
 1 30 1.53583311E-02 2.81812711E-03-5.44268465E-03 2.70705652E-03 5.45308197E-03
 1 31-8.16013849E-03-8.89553036E-04 3.59932712E-03 2.17613137E-03 8.84303694E-04
 1 32 3.46819016E-03-4.35249385E-03-6.11492393E-04 1.38528593E-03 1.15072860E-03
 1 33 1.10872448E-03-6.82545521E-04-4.76627643E-05 6.79157135E-04-1.35862185E-03
 1 34-8.97019155E-04 1.42256816E-03-5.90490833E-04 2.36573774E-04-5.53321422E-04
 1 35 1.37078748E-01-2.86023973E-02-5.47264727E-03-2.94586976E-02-5.98641445E-02
 1 36-6.67112588E-03 6.98010740E-03 1.51890024E-02 2.59403202E-03 5.60263667E-03
 1 37 1.14784268E-02 1.37386100E-03-2.07105913E-03 4.93280151E-03-2.86174237E-03
 1 38 4.49712411E-03 4.95113647E-04 2.18744753E-03-1.33292712E-03 3.44265557E-03
 1 39-2.10972845E-03 3.29618722E-03 2.61023224E-04 1.24834461E-03 1.14371832E-03
 1 40-6.80604327E-04 6.88115648E-04-9.71349344E-05-7.83875388E-05-6.64833905E-04
 1 41-8.44816480E-04-8.69625240E-04 1.01026146E-03-2.84611284E-04 1.31369811E-01
 1 42-3.00452546E-02-5.79449528E-03-3.62253771E-02-4.10918534E-04-4.78724002E-02
 1 43 5.14878217E-03-5.27265046E-04 1.25283971E-02-1.53231664E-03-1.53443391E-03
 1 44 1.27636045E-02 5.03522103E-03-3.11879246E-03-1.91642857E-03 7.63892430E-04
 1 45 6.08901690E-03 7.48000460E-04-2.28555608E-04-1.78849247E-03 2.01704808E-03
 1 46 1.29882730E-07 2.58592532E-03-7.17150565E-05-5.48942826E-05-1.48723966E-05
 1 47-1.35601485E-04-1.60740710E-05 1.87981612E-04-4.91567503E-05-6.05312996E-06
 1 48 1.22805159E-04 3.60274849E-05 1.25498874E-05 1.30076930E-01-4.38684529E-02
 1 49-4.54660799E-03 1.47316114E-02-2.52116861E-02-5.23202902E-02-3.40298475E-03
 1 50 5.41251270E-03 1.16699904E-02-5.25761248E-03 6.81777152E-03 1.64639083E-02
 1 51-7.50738232E-04-2.46891046E-04 9.97629277E-04-1.03293720E-04-6.71022246E-04
 1 52 1.09046768E-03-5.84148371E-04-8.13554477E-04 1.39770285E-03-8.06112978E-04
 1 53-5.89443007E-04 1.08033904E-03 7.49816988E-04-1.00311762E-03 4.21247230E-04
 1 54-5.24606275E-04-7.93003367E-04-6.98487287E-04 2.27840902E-04-3.07497767E-04
 1 55 1.87042979E-03-5.35097331E-04 2.76508329E-01-5.37091478E-02-1.40602166E-02
 1 56 5.63682817E-02 4.81929075E-03 3.38915270E-02-7.61597330E-03-1.60482293E-03
 1 57 4.77424188E-03-6.59170856E-03 9.14666787E-04-1.83840365E-02 5.09318671E-05
 1 58 7.21030261E-04-7.71962128E-04 9.10263495E-05-1.92235454E-03-1.11045455E-04
 1 59-4.87003900E-04-2.14188656E-03 2.62889046E-03 3.31797551E-04-3.28279216E-04
 1 60-6.24648076E-04 6.81256558E-04-1.26697117E-03-5.24633269E-03 3.48041648E-05
 1 61 2.29492643E-03-3.28905980E-04 4.74376749E-03-5.85095604E-04 1.66501603E-03
 1 62-4.49916169E-04 2.34179643E-01-5.09913669E-02-9.30154528E-03 1.02903340E-02
 1 63-5.82490669E-02 4.74256592E-02-2.82279954E-03 1.15485599E-02-8.45253967E-03
 1 64 1.88430774E-03 1.02796072E-02-1.28320709E-02-1.51760260E-03 4.05440964E-03
 1 65-2.53680703E-03 1.92596247E-03 8.19036961E-03-2.93440472E-04-6.84680139E-04
 1 66 1.76621474E-03-1.08153460E-03 1.66740177E-03 4.33467973E-03 2.20056926E-04
 1 67-7.57509350E-04-3.96825477E-04 2.37265277E-04-1.38193728E-03 2.09702599E-04
 1 68 2.66579288E-04-5.28027372E-04 7.49726152E-04 1.91433452E-03-9.49139349E-05
 1 69 2.34123630E-01-5.09831037E-02-9.29952783E-03-5.34276951E-03 4.81367247E-02
 1 70 5.83113849E-02 3.38971818E-04-9.95198800E-03-1.06544949E-02 4.35339786E-03
 1 71-6.54612626E-03-1.45525931E-02 2.30214516E-04 1.56215717E-03-1.79237169E-03
 1 72-4.74540610E-03 6.86069549E-03 3.76485133E-03 5.14003374E-04 3.32271627E-04
 1 73-8.46275001E-04-2.92291105E-03 3.65582595E-03 1.46758745E-03-1.42801068E-03
 1 74 7.31324370E-04-5.86001336E-04 5.98653389E-04 3.60307910E-04 5.98704419E-04
 1 75 4.25895383E-04 1.31717296E-03-1.57982799E-03 8.01184129E-05 2.76571077E-01
 1 76-5.37291153E-02-1.40629242E-02-1.71500548E-02-5.77037532E-02-2.69457011E-02
 1 77-3.43881764E-03 1.94052500E-03 8.23898065E-03 1.08868955E-02 1.57886370E-02
 1 78-3.93204464E-03 2.74632854E-04-1.50309863E-03 1.22846578E-03-1.31250113E-03
 1 79-4.24968331E-04-1.77608578E-04-3.68579072E-04 1.68899978E-04 1.99679094E-04
 1 80 1.95964820E-03-1.96826265E-03-7.68777554E-04-3.14011864E-03-1.12579727E-03
 1 81 1.83155714E-03 2.26996780E-03-1.42737458E-03 2.88199600E-03-1.02991718E-03
 1 82 1.33091524E-03-7.59552264E-04-3.78653000E-03 1.30061686E-01-4.38677655E-02
 1 83-4.54560861E-03 5.41303678E-03 3.82152447E-02-4.58229397E-02-1.38077678E-03
 1 84-8.35987365E-03 1.02598845E-02-2.61492554E-03-1.11572019E-02 1.46240249E-02
 1 85-7.73543840E-04 2.26037636E-04 5.47506204E-04-5.20422169E-05-2.89551974E-04
 1 86-1.41740635E-03-9.94861088E-04 7.10149642E-05 9.23846124E-04 7.32816511E-04
 1 87-3.12623477E-05-1.53753593E-03 1.46932062E-04 2.07919673E-04-3.82925399E-04
 1 88 1.26866010E-03-7.16773299E-04-4.83334034E-04 1.23052163E-03 2.86203986E-04
 1 89-1.54761361E-03-1.58493112E-04 2.76504836E-01-5.37279791E-02-1.40578271E-02
 1 90-3.36432496E-02 5.45951222E-02-1.54350580E-02-2.50029499E-03-4.43817557E-03
 1 91 7.59064418E-03 1.48047559E-02-1.09262885E-02-6.66095887E-03-5.09755471E-04
 1 92-6.52319540E-04 1.16207501E-03 1.70456639E-03-5.94186254E-05-4.45781725E-04
 1 93 4.95242133E-04-8.31848395E-04 3.36606262E-04-1.34969550E-03-2.43004482E-03
 1 94-3.80375006E-05-1.16777914E-03 1.84254213E-03 2.13610720E-03-3.22632707E-03
 1 95-3.78966250E-03-7.87736965E-04 9.23773948E-04 2.35447709E-03 7.54297400E-04
 1 96 2.72478104E-03 1.30083904E-01-4.38913298E-02-4.54452766E-03 5.62697034E-02
 1 97 1.01005854E-02-1.79673069E-02-1.24251601E-02-2.25613423E-03 4.21158879E-03
 1 98-1.70385928E-02-3.19016715E-03 6.73293751E-03 1.39530918E-03-9.41782543E-04
 1 99-4.53526640E-04 4.76299255E-04-6.58189390E-04-1.63720220E-04 1.43171315E-03
 1100-4.07968073E-04-1.02374508E-03 4.58403715E-04-1.31613363E-03-1.28867418E-04
 1101-1.64884267E-03 3.94513898E-04-3.32181060E-04-6.73680519E-04 1.02878739E-03
 1102 6.86007758E-04-5.83119734E-04 1.52614681E-03 1.44384583E-04 1.95679250E-04
 2  1-1.63650985E-01 7.85520271E-03 8.08328300E-03-9.04208460E-03-5.48826229E-02
 2  2-3.88772606E-02-1.24432634E-03 9.29373797E-03 1.16488387E-02-6.92573734E-04
 2  3-2.51305780E-03-1.27568916E-03 4.35720310E-03-6.71499009E-03 2.35778698E-03
 2  4-2.03637069E-03-3.80506300E-03-8.21864431E-03 2.05382971E-03-2.02416489E-03
 2  5-2.96648215E-05-3.39627895E-04-9.62433809E-04-3.78878080E-03-3.58343576E-04
 2  6 5.75368696E-05 2.24837507E-04 3.22631615E-04-8.48781144E-06 5.55360374E-04
 2  7-2.93163358E-04-7.45920165E-05-3.99825426E-04-3.17075724E-04-1.63622823E-01
 2  8 7.85918138E-03 8.08113751E-03-2.54048469E-02 5.66088797E-02-2.74670305E-02
 2  9 1.78735981E-03-1.13814626E-02 9.53227437E-03-1.41439960E-03 2.41372837E-03
 2 10-7.74989207E-04 2.19629463E-03-6.79750720E-03 4.60121256E-03 6.47070368E-03
 2 11-4.79435718E-03 4.43092783E-03 1.46106730E-03-2.58552719E-03 1.12445989E-03
 2 12 2.04004382E-03-1.68053697E-03 2.68961643E-03-4.11228842E-05 2.79568899E-04
 2 13 3.59686318E-04-5.74525188E-04-3.11171378E-04 7.42497861E-05-1.71398457E-04
 2 14-1.90776473E-05 1.99444151E-04 4.45000566E-04 1.41229401E-01-1.11720463E-02
 2 15-6.70097501E-03 6.11413899E-02 6.10948480E-03 2.80324096E-02-1.72917740E-02
 2 16-2.26912225E-03-2.63379430E-03-1.16737721E-02-1.81284422E-03 9.79082886E-04
 2 17 2.41291769E-03-3.26248318E-03 8.49565494E-04 3.53569532E-04 5.97046046E-03
 2 18 3.90561152E-04 3.85191448E-03-2.00149960E-03-1.85041488E-03 4.74695805E-04
 2 19 5.05217008E-03 7.25123359E-04 2.47830432E-04 3.85464655E-04-3.34329523E-04
 2 20-2.36815888E-04 1.42312386E-03 3.64118925E-04-9.74573740E-04-6.96618340E-04
 2 21-2.80339215E-04 5.66263470E-04 1.41196222E-01-1.11641255E-02-6.69976826E-03
 2 22-2.99017971E-02 5.64531400E-02-2.18750077E-02 4.47096517E-03-1.43037755E-02
 2 23 9.29768917E-03 9.41826517E-04-8.78851062E-03 7.89597654E-03 3.02913118E-04
 2 24 3.12025396E-03-3.42316708E-03-5.63610229E-03 8.01350832E-04-7.73114161E-04
 2 25-8.44174635E-04 3.71283566E-03-2.86866103E-03-3.99129195E-03 2.49230647E-03
 2 26-1.95235966E-03 9.15710842E-04 6.12284817E-04 3.91768732E-04 3.57965258E-04
 2 27-2.66484001E-05-2.39607786E-04-4.98964509E-04-9.88947228E-04-1.17943154E-03
 2 28 7.18988161E-04 2.69253630E-01-2.77268651E-02-1.04838620E-02-6.43917532E-02
 2 29-5.79441713E-03-3.56380650E-02 1.15407092E-02 2.32246688E-04 1.42793746E-02
 2 30 5.48476742E-03 1.34268688E-04 6.55094459E-03 1.66230252E-03 5.35855651E-03
 2 31-7.02085903E-03-1.43955947E-03 7.24054115E-03 2.57736131E-03-4.57883910E-04
 2 32 5.92118263E-03-5.46329872E-03-1.72429248E-03 5.57945906E-03 2.21618355E-03
 2 33 1.23557331E-03-6.68764939E-04 1.19802451E-03 9.16526736E-04-2.56114398E-03
 2 34-1.15171185E-03 9.53825426E-04-5.05983697E-04-1.92844175E-05-7.22817194E-04
 2 35 1.41233087E-01-1.11558342E-02-6.70232825E-03-1.32344000E-02-5.71239471E-02
 2 36-3.35051221E-02 4.84474168E-04 1.28440175E-02 1.20793100E-02-1.37183393E-03
 2 37 6.94147445E-03 9.50706029E-03-2.10520922E-03 4.91216968E-03-2.80696045E-03
 2 38 3.68774196E-03 1.26024437E-03 2.81297677E-03-2.26875941E-03 4.05684210E-03
 2 39-1.78808268E-03 1.58475660E-03 2.17087449E-03 4.16568343E-03 1.00307648E-03
 2 40-2.65730483E-04 7.44824031E-04 6.04862223E-05 1.76165810E-04 3.00987794E-05
 2 41-1.17545211E-03-1.37586710E-03 2.96028632E-04-1.21553557E-04-1.63619500E-01
 2 42 7.85460159E-03 8.08111081E-03 6.39526470E-02 7.18570497E-03 2.15020448E-02
 2 43-1.47791066E-02-2.21830052E-03 4.52010403E-04 2.53875768E-03 2.30425039E-04
 2 44 1.39052904E-03-7.83750836E-03 3.50482513E-03 4.33268323E-03-1.08121722E-03
 2 45-8.25054550E-03-1.30604122E-03-3.88738213E-03 1.70086228E-03 2.18651985E-03
 2 46-7.26063673E-04-2.25303888E-03-3.80942326E-04 4.04255617E-04-1.28179870E-04
 2 47-5.62448127E-04 6.32579396E-05 2.34180587E-04-9.54051465E-06 5.20422761E-04
 2 48-5.32825309E-04 1.08713403E-04 8.26033052E-06-2.39709517E-01 3.40929652E-02
 2 49 9.32075560E-03-9.12269559E-03 5.31899957E-02 7.03161452E-02-8.96327846E-04
 2 50-1.55986390E-02-1.41013348E-02 1.70459329E-03-8.81385650E-03-1.19980639E-02
 2 51 1.77489932E-03-1.50321729E-03-2.71682033E-04 6.16393793E-04-1.43021912E-03
 2 52-3.81066819E-03 8.31028621E-04-4.89135242E-04-3.41893378E-04 1.29855118E-03
 2 53-1.40406204E-03-2.40772032E-03-1.86137148E-03 1.48843837E-03-1.15900344E-03
 2 54 8.95452134E-04 1.08917820E-03 5.35896952E-04 4.65788083E-04 1.96139494E-03
 2 55-2.89240176E-03 7.29556180E-04-9.42730707E-02 1.83733531E-02 3.05619629E-03
 2 56 3.76308749E-02 1.82610762E-02-1.24233984E-01-2.76640627E-02-1.04639478E-02
 2 57 6.24070888E-02-3.30405891E-03-3.15828210E-03 2.60625472E-02 3.88952860E-03
 2 58-2.52928395E-03-1.36024465E-03 1.42365109E-03-2.88365993E-03-5.88225249E-04
 2 59 3.41132250E-03-2.82824980E-03-5.83072703E-04 1.34103436E-03-2.37256658E-03
 2 60-6.40913922E-04-1.29489826E-03 1.13153516E-04 1.81873460E-03-1.68081090E-05
 2 61-1.54809866E-03-2.46250494E-04-8.91989869E-04 1.98353882E-03-1.35003264E-04
 2 62-3.82782479E-04 2.69287704E-01-2.77361261E-02-1.04849007E-02 3.61242230E-02
 2 63-6.13823643E-02 1.94164846E-02-1.24168051E-02 1.34825014E-02 1.16112204E-03
 2 64-5.72644072E-03 6.33267423E-03 4.15472494E-04-2.05866498E-04 5.08120055E-03
 2 65-4.87533405E-03-5.52473625E-04 8.90975220E-03 1.48787641E-03 5.55890089E-04
 2 66 3.40919241E-03-3.96508250E-03 5.75389529E-04 7.48029150E-03 2.78330664E-03
 2 67-8.93347988E-04-1.04991854E-03-2.54947863E-04-1.12913879E-03 1.13963224E-03
 2 68 5.79342515E-04-7.97583793E-04 6.19209582E-04 2.53775233E-03-8.81040745E-04
 2 69 2.69267404E-01-2.77377829E-02-1.04847670E-02 1.76913722E-02 6.39936663E-02
 2 70 3.22745821E-02-8.02177411E-03-1.64051896E-02-1.90924113E-03-3.66809146E-03
 2 71-7.65214119E-03-1.02516518E-03 4.10812206E-04 4.12408263E-03-4.53489483E-03
 2 72-2.89257684E-03 8.37876795E-03 3.35581372E-03 1.45613835E-03 2.78662745E-03
 2 73-4.24276580E-03-2.91433987E-03 7.34689913E-03 1.17783942E-03-1.33136442E-03
 2 74 1.25851376E-03-1.32081689E-03 2.46050166E-04 7.57596835E-04 1.21847225E-04
 2 75 1.01446497E-03 1.66436558E-03-1.93452356E-03 9.90890445E-04-9.42419567E-02
 2 76 1.83837110E-02 3.05343316E-03 7.88818054E-02 5.33208557E-02-9.01542371E-02
 2 77-4.02210266E-02-2.11245588E-02 5.20895289E-02-1.62599468E-02-1.41705153E-02
 2 78 1.53755857E-02-1.99936896E-03-1.44740467E-03 3.44677363E-03-7.30535947E-04
 2 79-2.34496176E-03 2.86828917E-03-1.92723986E-03-1.04023200E-03 2.96747186E-03
 2 80-6.48988612E-05-2.44532576E-03 2.46921584E-03 4.02866252E-04-4.76527434E-06
 2 81-1.10772510E-03-9.45029358E-04-6.97167886E-05-1.64606812E-03 1.55588596E-03
 2 82 1.10556632E-03 9.51422644E-04 9.80350690E-04-2.39711171E-01 3.41019749E-02
 2 83 9.32053413E-03 8.44303863E-03-6.64263659E-02 5.80814120E-02-5.70515117E-03
 2 84 1.71678617E-02-1.07532384E-02-1.22384955E-03 1.11298153E-02-9.96140028E-03
 2 85 1.67546495E-03-2.56267551E-03 8.87210560E-04 1.09904860E-03-2.35096158E-03
 2 86 2.66459419E-03 1.23439137E-03-1.61485650E-03 3.80465132E-04-1.89958859E-04
 2 87-2.16591521E-03 1.60515898E-03-8.95666805E-04-8.97865770E-04 2.79595123E-04
 2 88-2.00124391E-03 1.10280487E-03 3.82110518E-04-1.47792109E-03 8.19552598E-04
 2 89 3.20585725E-03-3.72009320E-04-9.42905443E-02 1.83874848E-02 3.05511738E-03
 2 90 8.81208182E-02-9.66923557E-03-9.65603287E-02-4.30128868E-02-1.97284435E-03
 2 91 5.40049978E-02-1.91591966E-02 5.60633597E-03 1.73856030E-02-2.36777610E-03
 2 92 1.92695407E-04 2.17508069E-03 5.77673491E-04-1.14348802E-03-4.20683770E-03
 2 93-1.96587585E-03 1.12520152E-04 1.85335570E-03-1.45678476E-05-1.50758588E-03
 2 94-3.74215321E-03-4.46126395E-04-1.19351455E-03-1.26846276E-03 1.42757286E-03
 2 95 9.21049244E-04-1.03984492E-04 7.80772130E-04 7.02525860E-04 1.73694949E-04
 2 96-1.72436385E-03-2.39737912E-01 3.41272771E-02 9.31973838E-03-8.74573188E-02
 2 97-1.34001092E-02 5.54088020E-03 2.05643370E-02 2.64348671E-03 3.63766554E-03
 2 98 1.47772890E-02 2.29079744E-03-1.20989154E-03-3.86848150E-03 7.66570021E-04
 2 99 3.10191148E-03-6.08643284E-04-1.77554654E-03-5.33000266E-04-2.39199816E-03
 2100-4.45851356E-04 2.83784952E-03-2.52937577E-04-7.23963318E-04-4.95859265E-04
 2101 2.23931378E-03-1.03602590E-03 6.62412540E-04 1.30955693E-03-2.45260605E-03
 2102-1.76672266E-03 1.56388637E-03-1.23763204E-03 8.04176733E-05-8.10275140E-04
 3  1-2.28232351E-01 2.54392718E-02 8.55692042E-03-3.20565029E-02-6.26417651E-02
 3  2-2.75334705E-03 7.55529406E-03 1.32605898E-02-1.12700780E-03 5.37086873E-03
 3  3 8.89319570E-03-1.14149077E-03 1.23395616E-03-3.44397939E-03 2.21002323E-03
 3  4-2.59969317E-03-8.80496620E-04-1.39209523E-03 2.36331691E-04-1.79280856E-03
 3  5 1.55647687E-03-2.45860025E-03 4.56123516E-04 7.75746972E-04-1.04041103E-03
 3  6 9.12683458E-04-1.12107000E-03-6.87974678E-04-2.87642543E-04 1.08163380E-03
 3  7 1.79171577E-03 3.14224082E-04-5.36518674E-04 8.31123290E-04 1.11033282E-01
 3  8-1.23774681E-02-4.16276093E-03 5.45644959E-02 1.87220727E-03 2.12914242E-02
 3  9-1.66843154E-02-4.74829932E-03-7.67447383E-03-8.67614606E-03-1.00885245E-03
 3 10-2.77252114E-03 4.73992435E-03-3.23155853E-03-1.50836583E-03-2.49895590E-03
 3 11 2.13129119E-03-2.54413220E-03 5.05402394E-03-4.06100666E-03-9.93017278E-04
 3 12-1.78557559E-03 1.27228751E-03-2.03628337E-03 1.21263657E-03 9.93874187E-04
 3 13 8.11097398E-05-5.81197301E-04-9.01311100E-05-1.44048059E-03-1.86890251E-05
 3 14-1.86442096E-04-7.52224845E-04-2.19682676E-04-1.83838158E-01 2.12823998E-02
 3 15 6.36548960E-03-3.72317384E-02 2.94103932E-02-4.84578289E-02 7.67804211E-03
 3 16-1.02091949E-02 1.10240371E-02 5.23451807E-03-5.51259670E-03 8.41318481E-03